  7	55
 14
  0	  9	 40	 14	 69	 23	 95	 64	 78	 44	 42	 97	 99	111	
 24
  0	 11	 66	 52	 51	  6	107	106	 46	 22	 61	101	 33	 77	 38	 53	 88	108	 49	 93	 28	 83	104	111	
 20
  0	 29	 19	 84	  7	 26	 81	 62	 74	 35	 15	 43	 32	 70	 98	 90	 10	 87	 65	111	
 18
  0	  3	 58	 18	 13	 48	 50	 73	 68	103	  1	105	 36	 91	  4	 59	 56	111	
 22
  0	 41	 55	 30	 17	110	 72	 85	 96	  2	 21	 57	 24	 76	 20	 79	 45	 54	 75	109	100	111	
 14
  0	 27	 31	 34	 86	 82	  8	 37	 47	102	 92	 63	 89	111	
 12
  0	  5	 16	 12	 39	 60	 67	 25	 71	 94	 80	111	
